; sanic :: corpus-study/repo_src/sanic/sanic/server/websockets/impl.py :: wait_for at keepalive_ping:241 :: structured encoding (verdict: sat)
; Generated by snf-pipeline (encoder.py) -- run with any
; SMT-LIB2-compliant solver, e.g. `z3 sanic__corpus-study_repo_src_sanic_sanic_server_websockets_impl.py__waitfor_keepalive_ping_L241__structured.smt2`
; benchmark generated from python API
(set-info :status unknown)
(declare-fun timeout_fires () Bool)
(declare-fun completes_first () Bool)
(declare-fun cleanup_ran () Bool)
(assert
 (or completes_first timeout_fires))
(assert
 (let (($x69 (not cleanup_ran)))
(and timeout_fires $x69)))
(check-sat)
